p cnf 23 38
-1 -2 20 0 
-3 20 0 
-4 20 0 
-5 20 0 
-6 -7 20 0 
-8 20 0 
-9 20 0 
-1 -10 20 0 
-11 20 0 
-12 -7 20 0 
-13 -7 20 0 
-12 20 0 
-14 20 0 
-10 20 0 
-10 -15 20 0 
-15 20 0 
-15 -16 20 0 
-17 20 0 
-10 -14 20 0 
-15 -12 20 0 
-18 21 0 
-13 22 0 
-1 20 0 
-6 23 0 
-19 23 0 
-9 -3 20 0 
-6 -3 20 0 
-6 20 0 
-2 21 0 
-18 22 0 
-12 21 0 
-2 20 0 
-19 20 0 
-4 -3 20 0 
-6 -12 20 0 
-7 20 0 
-19 -7 20 0 
-4 -7 20 0 
